W=5;
H=5;

MAX_TIME=18;
MAX_TRACKS=6;

TARGET=(5,5);

TRAINS=[(5,3,TOP),(5,1,TOP)];
DECOYS=[];

INIT_POS=[
(1,1,CORNER_DR),
(1,2,STRAIGHT_RL),
(1,3,SWITCH_L_R_D),
(1,4,CORNER_DL),
(2,1,DSWITCH_T_D_R),
(2,2,STRAIGHT_RL),
(2,3,SWITCH_T_D_L),
(2,4,STRAIGHT_TD),
(3,4,STRAIGHT_TD),
(4,4,STRAIGHT_TD),
(5,1,STRAIGHT_TD),
(5,3,STRAIGHT_TD),
(5,4,CORNER_TR),
(5,5,STRAIGHT_RL),
];
TUNNEL_PAIRS=[];

GATES=[
(2,3,4,true),
(4,4,1,false),
];
ACTIVATIONS=[
(2,2,1),
];

DSWITCHES=[
(2,1,1),
];
STATIONS=[];
